(set-option :produce-models true)
(set-logic QF_LRA)
(set-info :notes | Strip-packing problem.|)
(declare-fun x0 () Real)
(declare-fun y0 () Real)
(declare-fun x1 () Real)
(declare-fun y1 () Real)
(declare-fun x2 () Real)
(declare-fun y2 () Real)
(declare-fun x3 () Real)
(declare-fun y3 () Real)
(declare-fun x4 () Real)
(declare-fun y4 () Real)
(declare-fun x5 () Real)
(declare-fun y5 () Real)
(declare-fun x6 () Real)
(declare-fun y6 () Real)
(declare-fun x7 () Real)
(declare-fun y7 () Real)
(declare-fun x8 () Real)
(declare-fun y8 () Real)
(declare-fun z () Real)
(declare-fun c () Real)
(assert (and (= c z) (and (>= x0 0) 
(and (>= y0 0) 
(and (>= x1 0) 
(and (>= y1 0) 
(and (>= x2 0) 
(and (>= y2 0) 
(and (>= x3 0) 
(and (>= y3 0) 
(and (>= x4 0) 
(and (>= y4 0) 
(and (>= x5 0) 
(and (>= y5 0) 
(and (>= x6 0) 
(and (>= y6 0) 
(and (>= x7 0) 
(and (>= y7 0) 
(and (>= x8 0) 
(and (>= y8 0) 
(and (>= z 0) 
(and (>= c 0) 
(and (<= (+ x0 0.6980624043) z) 
(and (<= 0.6483760631 y0) 
(and (<= y0 1.5) 
(and (<= x0 (- 3.5418311485 0.6980624043)) 
(and (>= x0 0) 
(and (<= (+ x1 0.6120988242) z) 
(and (<= 0.5942602506 y1) 
(and (<= y1 1.5) 
(and (<= x1 (- 3.5418311485 0.6120988242)) 
(and (>= x1 0) 
(and (<= (+ x2 0.2809041146) z) 
(and (<= 0.5711087883 y2) 
(and (<= y2 1.5) 
(and (<= x2 (- 3.5418311485 0.2809041146)) 
(and (>= x2 0) 
(and (<= (+ x3 0.3373722324) z) 
(and (<= 0.4594187931 y3) 
(and (<= y3 1.5) 
(and (<= x3 (- 3.5418311485 0.3373722324)) 
(and (>= x3 0) 
(and (<= (+ x4 0.4658033045) z) 
(and (<= 0.3690513667 y4) 
(and (<= y4 1.5) 
(and (<= x4 (- 3.5418311485 0.4658033045)) 
(and (>= x4 0) 
(and (<= (+ x5 0.850028947) z) 
(and (<= 0.2606296293 y5) 
(and (<= y5 1.5) 
(and (<= x5 (- 3.5418311485 0.850028947)) 
(and (>= x5 0) 
(and (<= (+ x6 0.1587576041) z) 
(and (<= 0.2528630481 y6) 
(and (<= y6 1.5) 
(and (<= x6 (- 3.5418311485 0.1587576041)) 
(and (>= x6 0) 
(and (<= (+ x7 0.9096601457) z) 
(and (<= 0.0493664354 y7) 
(and (<= y7 1.5) 
(and (<= x7 (- 3.5418311485 0.9096601457)) 
(and (>= x7 0) 
(and (<= (+ x8 0.2781373864) z) 
(and (<= 0.0343535925 y8) 
(and (<= y8 1.5) 
(and (<= x8 (- 3.5418311485 0.2781373864)) 
(and (>= x8 0) 
(and (<= c 3.5418311485) 
(and (or (<= (+ x0 0.6980624043) x1) (or (<= (+ x1 0.6120988242) x0) (or (>= (- y0 0.6483760631) y1) (or (>= (- y1 0.5942602506) y0))))) 
(and (or (<= (+ x0 0.6980624043) x2) (or (<= (+ x2 0.2809041146) x0) (or (>= (- y0 0.6483760631) y2) (or (>= (- y2 0.5711087883) y0))))) 
(and (or (<= (+ x0 0.6980624043) x3) (or (<= (+ x3 0.3373722324) x0) (or (>= (- y0 0.6483760631) y3) (or (>= (- y3 0.4594187931) y0))))) 
(and (or (<= (+ x0 0.6980624043) x4) (or (<= (+ x4 0.4658033045) x0) (or (>= (- y0 0.6483760631) y4) (or (>= (- y4 0.3690513667) y0))))) 
(and (or (<= (+ x0 0.6980624043) x5) (or (<= (+ x5 0.850028947) x0) (or (>= (- y0 0.6483760631) y5) (or (>= (- y5 0.2606296293) y0))))) 
(and (or (<= (+ x0 0.6980624043) x6) (or (<= (+ x6 0.1587576041) x0) (or (>= (- y0 0.6483760631) y6) (or (>= (- y6 0.2528630481) y0))))) 
(and (or (<= (+ x0 0.6980624043) x7) (or (<= (+ x7 0.9096601457) x0) (or (>= (- y0 0.6483760631) y7) (or (>= (- y7 0.0493664354) y0))))) 
(and (or (<= (+ x0 0.6980624043) x8) (or (<= (+ x8 0.2781373864) x0) (or (>= (- y0 0.6483760631) y8) (or (>= (- y8 0.0343535925) y0))))) 
(and (or (<= (+ x1 0.6120988242) x2) (or (<= (+ x2 0.2809041146) x1) (or (>= (- y1 0.5942602506) y2) (or (>= (- y2 0.5711087883) y1))))) 
(and (or (<= (+ x1 0.6120988242) x3) (or (<= (+ x3 0.3373722324) x1) (or (>= (- y1 0.5942602506) y3) (or (>= (- y3 0.4594187931) y1))))) 
(and (or (<= (+ x1 0.6120988242) x4) (or (<= (+ x4 0.4658033045) x1) (or (>= (- y1 0.5942602506) y4) (or (>= (- y4 0.3690513667) y1))))) 
(and (or (<= (+ x1 0.6120988242) x5) (or (<= (+ x5 0.850028947) x1) (or (>= (- y1 0.5942602506) y5) (or (>= (- y5 0.2606296293) y1))))) 
(and (or (<= (+ x1 0.6120988242) x6) (or (<= (+ x6 0.1587576041) x1) (or (>= (- y1 0.5942602506) y6) (or (>= (- y6 0.2528630481) y1))))) 
(and (or (<= (+ x1 0.6120988242) x7) (or (<= (+ x7 0.9096601457) x1) (or (>= (- y1 0.5942602506) y7) (or (>= (- y7 0.0493664354) y1))))) 
(and (or (<= (+ x1 0.6120988242) x8) (or (<= (+ x8 0.2781373864) x1) (or (>= (- y1 0.5942602506) y8) (or (>= (- y8 0.0343535925) y1))))) 
(and (or (<= (+ x2 0.2809041146) x3) (or (<= (+ x3 0.3373722324) x2) (or (>= (- y2 0.5711087883) y3) (or (>= (- y3 0.4594187931) y2))))) 
(and (or (<= (+ x2 0.2809041146) x4) (or (<= (+ x4 0.4658033045) x2) (or (>= (- y2 0.5711087883) y4) (or (>= (- y4 0.3690513667) y2))))) 
(and (or (<= (+ x2 0.2809041146) x5) (or (<= (+ x5 0.850028947) x2) (or (>= (- y2 0.5711087883) y5) (or (>= (- y5 0.2606296293) y2))))) 
(and (or (<= (+ x2 0.2809041146) x6) (or (<= (+ x6 0.1587576041) x2) (or (>= (- y2 0.5711087883) y6) (or (>= (- y6 0.2528630481) y2))))) 
(and (or (<= (+ x2 0.2809041146) x7) (or (<= (+ x7 0.9096601457) x2) (or (>= (- y2 0.5711087883) y7) (or (>= (- y7 0.0493664354) y2))))) 
(and (or (<= (+ x2 0.2809041146) x8) (or (<= (+ x8 0.2781373864) x2) (or (>= (- y2 0.5711087883) y8) (or (>= (- y8 0.0343535925) y2))))) 
(and (or (<= (+ x3 0.3373722324) x4) (or (<= (+ x4 0.4658033045) x3) (or (>= (- y3 0.4594187931) y4) (or (>= (- y4 0.3690513667) y3))))) 
(and (or (<= (+ x3 0.3373722324) x5) (or (<= (+ x5 0.850028947) x3) (or (>= (- y3 0.4594187931) y5) (or (>= (- y5 0.2606296293) y3))))) 
(and (or (<= (+ x3 0.3373722324) x6) (or (<= (+ x6 0.1587576041) x3) (or (>= (- y3 0.4594187931) y6) (or (>= (- y6 0.2528630481) y3))))) 
(and (or (<= (+ x3 0.3373722324) x7) (or (<= (+ x7 0.9096601457) x3) (or (>= (- y3 0.4594187931) y7) (or (>= (- y7 0.0493664354) y3))))) 
(and (or (<= (+ x3 0.3373722324) x8) (or (<= (+ x8 0.2781373864) x3) (or (>= (- y3 0.4594187931) y8) (or (>= (- y8 0.0343535925) y3))))) 
(and (or (<= (+ x4 0.4658033045) x5) (or (<= (+ x5 0.850028947) x4) (or (>= (- y4 0.3690513667) y5) (or (>= (- y5 0.2606296293) y4))))) 
(and (or (<= (+ x4 0.4658033045) x6) (or (<= (+ x6 0.1587576041) x4) (or (>= (- y4 0.3690513667) y6) (or (>= (- y6 0.2528630481) y4))))) 
(and (or (<= (+ x4 0.4658033045) x7) (or (<= (+ x7 0.9096601457) x4) (or (>= (- y4 0.3690513667) y7) (or (>= (- y7 0.0493664354) y4))))) 
(and (or (<= (+ x4 0.4658033045) x8) (or (<= (+ x8 0.2781373864) x4) (or (>= (- y4 0.3690513667) y8) (or (>= (- y8 0.0343535925) y4))))) 
(and (or (<= (+ x5 0.850028947) x6) (or (<= (+ x6 0.1587576041) x5) (or (>= (- y5 0.2606296293) y6) (or (>= (- y6 0.2528630481) y5))))) 
(and (or (<= (+ x5 0.850028947) x7) (or (<= (+ x7 0.9096601457) x5) (or (>= (- y5 0.2606296293) y7) (or (>= (- y7 0.0493664354) y5))))) 
(and (or (<= (+ x5 0.850028947) x8) (or (<= (+ x8 0.2781373864) x5) (or (>= (- y5 0.2606296293) y8) (or (>= (- y8 0.0343535925) y5))))) 
(and (or (<= (+ x6 0.1587576041) x7) (or (<= (+ x7 0.9096601457) x6) (or (>= (- y6 0.2528630481) y7) (or (>= (- y7 0.0493664354) y6))))) 
(and (or (<= (+ x6 0.1587576041) x8) (or (<= (+ x8 0.2781373864) x6) (or (>= (- y6 0.2528630481) y8) (or (>= (- y8 0.0343535925) y6))))) 
(and (or (<= (+ x7 0.9096601457) x8) (or (<= (+ x8 0.2781373864) x7) (or (>= (- y7 0.0493664354) y8) (or (>= (- y8 0.0343535925) y7))))) ))))))))))))))))))))))))))))))))))))))))))))))))))))))))))))))))))))))))))))))))))))))))))))))))))))))))
(minimize c)
(check-sat)
(get-objectives)
(exit)
